# 52651
param k := 5;
param n := 60;
param s := 2;
set E :=  (0,47) (0,49) (0,50) (1,21) (1,36) (2,19) (2,27) (3,44) (4,23) (4,47) (5,54) (6,9) (6,24) (6,26) (6,45) (6,56) (7,24) (8,10) (8,20) (8,34) (9,39) (10,19) (10,53) (11,23) (11,54) (12,38) (12,56) (13,23) (13,33) (13,59) (14,30) (14,35) (15,38) (16,22) (16,46) (16,48) (17,49) (17,54) (18,29) (18,36) (18,56) (19,20) (19,25) (19,29) (19,30) (19,32) (22,24) (22,51) (23,34) (23,36) (23,39) (23,58) (24,30) (25,28) (25,43) (25,48) (27,55) (28,40) (29,42) (31,56) (32,52) (37,43) (37,48) (37,49) (41,42) (42,46) (43,57) (44,49) (45,47) (51,56) (52,53) (56,58);